% seed = 0

mint = 38;
% maxt = 214;

nActs = 92;
dur = [0,3,3,2,3,3,2,2,2,4,4,6,2,3,3,3,1,3,1,3,2,3,3,2,3,3,3,3,3,3,2,2,1,3,2,4,2,1,1,1,5,4,2,3,4,3,4,2,2,1,1,2,2,2,3,1,2,4,2,2,3,2,2,1,4,2,2,1,1,2,2,1,2,3,1,3,1,2,2,3,1,1,4,3,1,2,2,2,2,3,2,0];

nSkills = 9;
sreq = [| 0,0,0,0,0,0,0,0,0,
	| 0,0,1,0,0,1,1,0,0,
	| 0,0,0,0,1,0,0,0,0,
	| 0,0,1,0,1,0,0,0,0,
	| 1,0,1,0,1,1,0,1,0,
	| 0,0,1,0,1,0,1,0,0,
	| 0,0,1,0,1,0,0,1,0,
	| 0,1,0,0,2,1,0,0,0,
	| 0,1,1,0,1,0,0,0,0,
	| 0,1,1,0,1,0,0,0,0,
	| 0,0,1,1,0,0,0,0,0,
	| 0,0,0,0,1,3,1,0,0,
	| 0,1,0,0,1,0,1,0,0,
	| 0,0,1,0,0,0,0,0,0,
	| 0,0,0,0,1,0,0,0,0,
	| 1,0,2,0,0,1,0,1,0,
	| 0,0,1,1,0,0,0,0,0,
	| 0,0,1,0,0,0,0,1,0,
	| 0,0,0,0,2,1,0,0,0,
	| 0,3,0,0,1,0,0,1,0,
	| 0,1,0,0,1,0,0,0,0,
	| 0,1,0,0,0,0,0,1,0,
	| 0,0,3,0,0,0,0,2,0,
	| 0,1,1,0,0,1,0,2,0,
	| 0,0,1,0,1,0,0,1,0,
	| 0,0,0,0,0,1,0,0,0,
	| 0,0,1,0,1,0,0,0,0,
	| 0,0,0,0,1,1,0,0,0,
	| 0,0,0,1,0,0,0,1,0,
	| 0,0,1,0,0,2,0,2,0,
	| 0,1,0,0,1,0,0,0,0,
	| 0,0,2,0,0,0,0,0,0,
	| 0,0,2,0,0,0,0,1,0,
	| 1,0,2,0,0,1,0,0,0,
	| 0,0,1,0,0,2,1,0,0,
	| 0,1,1,0,0,3,0,0,0,
	| 1,0,1,0,2,0,1,0,0,
	| 0,0,0,0,1,1,0,1,0,
	| 0,0,1,0,1,0,0,1,0,
	| 0,0,1,0,1,0,0,0,0,
	| 0,0,0,1,1,0,0,0,0,
	| 0,0,0,0,1,0,0,0,0,
	| 0,0,2,1,0,1,0,0,0,
	| 0,0,0,1,1,1,0,0,0,
	| 0,0,0,1,0,1,0,1,0,
	| 0,0,0,1,0,0,0,0,0,
	| 0,0,1,0,2,0,0,1,0,
	| 0,0,0,0,0,0,0,1,0,
	| 0,1,0,0,1,2,1,0,0,
	| 0,0,1,1,0,0,0,0,0,
	| 0,0,1,0,1,1,0,1,0,
	| 0,0,2,0,1,0,0,0,0,
	| 0,1,0,0,0,2,0,1,0,
	| 0,0,0,1,0,0,0,0,0,
	| 0,0,1,1,0,0,0,1,0,
	| 0,0,0,0,0,1,1,0,0,
	| 0,0,1,0,1,0,0,0,0,
	| 0,1,0,0,0,0,0,0,0,
	| 0,0,0,0,0,1,0,0,0,
	| 0,0,2,1,1,0,0,0,0,
	| 0,1,0,0,0,0,0,0,0,
	| 0,1,3,0,0,0,1,0,0,
	| 0,0,1,1,2,1,0,0,0,
	| 0,0,1,0,1,0,1,0,0,
	| 0,0,0,0,1,0,1,0,0,
	| 0,0,0,0,0,0,0,1,0,
	| 0,0,1,1,0,0,0,0,0,
	| 0,0,3,0,0,2,0,0,0,
	| 0,1,0,0,0,0,0,1,0,
	| 0,0,0,0,0,0,0,2,0,
	| 0,0,0,0,1,0,0,0,0,
	| 0,1,2,0,0,0,0,1,0,
	| 0,1,1,0,0,0,0,1,1,
	| 0,0,0,0,1,0,0,0,0,
	| 0,0,1,1,2,1,0,0,0,
	| 0,0,1,0,1,0,1,0,0,
	| 0,1,1,0,1,1,0,0,0,
	| 0,0,0,0,0,1,0,0,0,
	| 0,0,1,0,0,1,0,0,0,
	| 0,2,0,0,2,0,0,1,0,
	| 0,0,0,0,0,1,0,1,0,
	| 0,0,0,0,1,0,0,0,0,
	| 0,0,1,0,0,3,0,1,0,
	| 0,2,0,0,0,0,0,0,0,
	| 0,0,0,0,1,0,1,0,0,
	| 0,0,1,1,1,0,0,0,0,
	| 0,0,1,2,0,1,0,0,0,
	| 0,0,1,0,0,1,1,1,0,
	| 1,0,1,0,0,2,0,1,0,
	| 0,1,0,0,2,0,0,0,0,
	| 0,0,0,0,0,0,0,1,0,
	| 0,0,0,0,0,0,0,0,0, |];

% SumOfsreq = 259;

nResources = 15;
mastery = [| false,true,true,true,true,true,false,false,false,
	| true,true,true,true,true,true,false,false,false,
	| false,true,true,false,false,false,false,false,false,
	| false,true,true,false,false,false,false,false,false,
	| false,false,false,false,true,true,false,false,true,
	| false,false,true,false,false,false,false,false,false,
	| false,false,false,false,false,false,false,true,true,
	| false,false,false,false,false,false,true,true,true,
	| false,false,false,true,true,true,false,false,false,
	| false,false,false,false,true,true,false,false,false,
	| false,false,false,false,false,false,true,true,true,
	| false,false,true,false,false,false,false,false,true,
	| false,false,false,false,true,true,false,false,false,
	| false,false,false,true,true,true,false,false,false,
	| false,true,true,false,false,false,false,false,false, |];

nPrecs = 194;
pred = [1,1,1,2,2,2,3,3,3,4,4,4,5,5,5,6,7,7,7,8,8,8,9,9,9,10,10,10,11,11,11,12,12,12,13,13,13,14,14,14,15,15,15,16,16,16,17,17,17,18,18,18,19,19,19,20,20,20,21,21,21,22,22,22,23,23,23,24,25,25,25,26,26,26,27,27,28,28,28,29,29,29,30,30,30,31,31,31,32,33,33,33,34,34,35,35,36,36,36,37,37,37,38,38,39,39,39,40,40,40,41,41,41,42,42,42,43,43,44,45,45,45,46,46,46,47,48,48,48,49,49,49,50,50,50,51,51,51,52,52,52,53,54,54,55,56,56,56,57,57,58,59,60,60,61,62,63,64,64,65,66,66,66,67,68,68,69,69,70,70,71,71,72,73,74,75,76,77,78,79,80,80,81,81,82,83,84,85,86,87,88,89,90,91];
succ = [2,3,4,55,23,40,13,6,30,5,7,8,10,79,82,71,18,19,52,9,20,12,11,44,64,49,22,63,14,63,16,17,27,36,33,80,32,25,22,15,87,54,47,84,37,47,19,46,39,41,21,24,85,34,53,42,59,66,57,45,46,57,60,88,34,35,44,75,26,28,29,78,71,32,35,79,81,37,39,41,50,31,66,70,86,65,90,55,85,35,45,43,73,47,49,73,65,52,38,83,52,54,48,40,80,70,56,57,43,45,59,62,56,69,63,64,51,44,81,51,59,62,49,50,65,72,67,53,55,67,60,61,74,51,69,60,77,54,66,76,56,61,58,67,78,58,77,87,58,61,68,69,89,68,62,68,71,75,86,73,89,74,72,89,86,72,70,78,76,79,75,76,90,74,82,80,77,88,81,84,83,84,82,83,87,88,85,90,91,91,91,92,92,92];

nUnrels = 2396;
unpred = [2,2,2,2,2,2,2,2,2,2,2,2,2,2,2,2,2,2,2,2,2,2,2,2,2,2,2,2,2,2,2,2,2,2,2,2,2,2,2,2,2,2,2,2,2,2,2,2,2,3,3,3,3,3,3,3,3,3,3,3,3,3,3,3,3,3,3,3,3,3,3,3,3,3,3,3,3,3,3,3,3,3,3,3,3,3,3,3,3,3,3,3,3,3,4,4,4,4,4,5,5,5,5,5,5,5,5,5,5,5,5,5,5,5,5,5,5,5,5,5,5,5,5,5,5,5,5,5,5,5,5,5,5,5,5,5,5,5,5,5,5,5,5,5,5,5,5,5,5,5,5,5,5,5,5,5,5,6,6,6,6,6,6,6,6,6,6,6,6,6,6,6,6,6,6,6,6,6,6,6,6,6,6,6,6,6,6,6,6,6,6,6,6,6,6,6,6,6,6,6,6,6,6,6,6,6,6,6,6,6,6,6,6,6,6,6,6,6,6,6,6,6,6,6,6,6,6,6,6,6,6,7,7,7,7,7,7,7,7,7,7,7,7,7,7,7,7,7,7,7,7,7,7,7,7,7,7,7,7,7,7,7,7,7,7,7,7,8,8,8,8,8,8,8,8,9,9,9,9,9,9,9,9,9,9,9,9,9,9,9,9,9,9,9,9,9,9,9,9,9,10,10,10,10,10,10,10,10,10,10,10,10,10,10,10,10,10,10,10,10,10,10,10,10,10,10,10,10,10,10,10,10,10,10,10,10,10,10,10,10,10,10,10,10,10,10,10,10,10,10,10,10,10,10,10,10,10,11,11,11,11,11,11,11,11,11,11,11,11,11,11,11,11,11,11,11,11,11,11,11,11,11,11,12,12,12,12,12,12,12,12,12,12,12,12,12,12,12,12,12,12,12,12,12,12,12,12,12,13,13,13,13,13,13,13,13,13,13,13,13,13,13,13,13,13,13,13,13,13,13,13,13,13,13,13,13,13,13,13,13,13,13,13,13,13,13,13,13,13,14,14,14,14,14,14,14,14,14,14,14,14,14,14,14,14,14,14,14,14,14,14,14,14,14,14,15,15,15,15,15,15,15,15,15,15,15,15,15,15,15,15,15,15,15,15,15,15,15,15,15,15,15,15,15,15,15,15,15,15,15,15,15,15,15,15,15,15,15,15,15,15,15,15,15,15,15,15,15,15,15,15,15,15,15,15,15,15,15,15,15,16,16,16,16,16,16,16,16,16,16,16,16,16,16,16,16,16,16,16,16,16,16,16,16,16,16,16,16,16,16,16,16,16,16,16,16,16,16,16,16,16,16,16,16,16,16,16,16,16,16,16,16,17,17,17,17,17,17,17,17,17,17,17,17,17,17,17,17,17,17,17,17,17,17,17,17,17,17,17,17,17,17,17,17,17,17,17,18,18,18,18,18,18,18,18,18,18,18,18,18,18,18,18,18,18,18,18,18,18,18,18,18,18,18,18,18,18,18,18,19,19,19,19,19,19,19,19,19,19,19,19,19,19,19,19,19,19,19,19,19,19,19,19,19,19,19,19,19,19,19,19,19,19,19,19,19,19,19,19,19,19,19,19,19,19,19,19,19,19,19,19,19,19,19,19,19,20,20,20,20,20,20,20,20,20,20,20,20,20,20,20,20,20,20,20,20,20,20,20,20,20,20,20,20,20,20,20,20,20,20,20,20,20,20,20,20,20,20,20,20,21,21,21,21,21,21,21,21,21,21,21,21,21,21,21,21,21,21,21,21,21,21,21,21,21,21,21,21,21,21,21,21,21,21,21,22,22,22,22,22,22,22,22,22,22,22,22,22,22,22,22,22,22,22,22,22,22,22,22,22,22,22,22,22,22,22,22,22,22,22,22,22,22,22,22,22,22,22,22,22,22,22,22,22,22,22,22,22,22,22,22,22,23,23,23,23,23,23,23,23,23,23,23,23,23,23,23,23,23,23,23,23,23,23,23,23,23,23,23,23,23,23,23,23,23,23,23,23,23,23,23,23,23,23,23,23,23,23,24,24,24,24,24,24,24,24,24,24,24,24,24,24,24,24,24,24,24,24,24,24,24,24,24,24,24,24,24,24,24,24,24,24,24,24,24,24,24,24,24,24,24,24,24,24,24,24,24,24,24,24,24,24,24,24,24,24,24,25,25,25,25,25,25,25,25,25,25,25,25,25,25,25,25,25,25,25,25,25,26,26,26,26,26,26,26,26,26,26,26,26,26,26,26,26,26,26,26,26,26,26,26,26,26,26,26,26,26,26,26,26,26,26,26,26,26,26,26,26,26,26,26,26,26,26,26,26,26,27,27,27,27,27,27,27,27,27,27,27,27,27,27,27,27,27,27,27,27,27,27,27,27,27,27,27,27,27,27,27,27,27,27,27,27,27,27,27,27,27,27,27,27,27,28,28,28,28,28,28,28,28,28,28,28,28,28,28,28,28,28,28,28,28,28,28,28,28,28,28,28,28,28,28,28,28,28,28,28,28,29,29,29,29,29,29,29,29,29,29,29,29,29,29,29,29,29,29,29,29,29,29,29,29,29,29,29,29,30,30,30,30,30,30,30,30,30,30,30,30,30,30,30,30,30,30,30,30,30,30,30,30,30,30,30,30,30,30,30,30,30,30,30,30,30,30,30,30,30,30,30,30,30,31,31,31,31,31,31,31,31,31,31,31,31,31,31,31,31,31,31,31,31,31,31,31,31,31,31,31,31,31,31,31,31,31,31,31,31,31,31,31,31,31,31,31,31,31,31,31,31,32,32,32,32,32,32,32,32,32,32,32,32,32,32,32,32,32,32,32,32,32,32,32,32,32,32,32,32,32,32,32,32,32,32,32,32,32,32,32,32,32,32,32,32,32,32,32,32,32,32,32,32,32,32,32,32,32,33,33,33,33,33,33,33,33,33,33,33,33,33,33,33,33,33,33,33,33,33,33,33,33,34,34,34,34,34,34,34,34,34,34,34,34,34,34,34,34,34,34,34,34,34,34,34,34,34,34,34,34,34,34,34,34,34,34,34,34,34,34,34,34,34,34,34,34,34,34,34,34,34,35,35,35,35,35,35,35,35,35,35,35,35,35,35,35,35,35,35,35,35,35,35,35,35,35,35,35,35,35,35,35,35,35,35,35,35,35,35,35,35,35,36,36,36,36,36,36,36,36,36,36,36,36,36,37,37,37,37,37,37,37,37,37,37,37,37,37,37,37,37,37,37,37,37,37,37,37,37,37,37,37,37,37,37,37,37,37,37,37,38,38,38,38,38,38,38,38,38,38,38,38,38,38,38,38,38,38,39,39,39,39,39,39,39,39,39,39,39,39,39,39,39,39,39,39,39,39,39,39,39,39,39,39,39,39,39,39,39,39,39,39,39,40,40,40,40,40,40,40,40,40,40,40,40,40,40,40,40,40,40,40,40,41,41,41,41,41,41,41,41,41,41,41,41,41,41,41,41,41,41,41,41,41,41,41,41,41,41,41,41,42,42,42,42,42,42,42,42,42,42,42,42,42,42,42,42,42,42,42,42,42,42,42,42,42,42,42,42,43,43,43,43,43,43,43,43,43,43,43,43,43,43,43,43,43,43,43,43,43,43,43,43,43,43,43,43,43,43,44,44,44,44,44,44,44,44,44,44,44,44,44,44,44,44,44,44,44,44,44,44,44,44,44,44,44,44,44,44,44,44,44,44,44,44,44,44,44,44,44,45,45,45,45,45,45,45,45,45,45,45,45,45,45,45,45,45,45,45,45,46,46,46,46,46,46,46,46,46,46,46,46,46,46,47,47,47,47,47,47,47,47,47,47,47,47,47,47,47,47,47,47,47,47,47,47,47,47,47,47,47,47,47,47,47,47,47,47,47,47,47,47,47,47,47,47,48,48,48,48,48,48,48,48,48,48,48,48,48,48,48,48,48,48,48,48,48,48,48,48,48,48,49,49,49,49,49,49,49,49,49,49,49,49,49,49,49,49,49,49,49,49,49,49,49,49,49,49,49,49,49,49,49,49,50,50,50,50,50,50,50,50,50,50,50,50,50,50,50,50,51,51,51,51,51,51,51,51,51,51,51,51,51,51,51,51,51,51,51,51,51,51,51,51,51,51,51,51,52,52,52,52,52,52,52,52,52,52,52,52,52,52,52,52,52,52,52,52,52,52,52,52,53,53,53,53,53,53,53,53,53,53,53,53,53,53,53,53,53,53,53,53,53,53,53,53,53,53,53,53,53,53,53,54,54,54,54,54,54,54,54,54,54,54,54,54,54,54,54,54,54,54,54,54,54,54,54,54,54,54,54,54,55,55,55,55,55,55,55,55,55,55,55,55,55,55,55,55,55,55,55,55,55,55,55,55,55,55,55,55,55,56,56,56,56,56,56,56,56,56,56,56,56,56,56,56,56,56,56,56,56,56,56,56,56,56,56,57,57,57,57,57,57,57,57,57,57,57,57,57,57,57,57,57,57,57,57,57,57,57,57,57,57,58,58,58,58,58,58,58,58,58,58,58,58,58,58,58,58,58,58,58,58,58,58,58,58,58,58,58,58,59,59,59,59,59,59,59,59,59,59,59,59,59,59,59,59,59,60,60,60,60,60,60,60,60,60,60,60,60,60,60,60,60,60,60,60,60,60,60,60,60,60,61,61,61,61,61,61,61,61,61,61,61,61,61,61,61,61,61,61,61,61,61,61,61,61,62,62,62,62,62,62,62,62,62,62,62,62,62,62,62,62,62,62,62,62,62,62,62,62,63,63,63,63,63,63,63,63,63,63,63,63,63,63,63,63,63,64,64,64,64,64,64,64,64,64,64,64,64,64,64,64,64,64,64,65,65,65,65,65,65,65,65,65,65,65,65,65,65,65,65,65,65,65,65,65,66,66,66,66,66,66,66,66,66,66,66,66,66,66,66,66,66,66,67,67,67,67,67,67,67,67,67,67,67,67,67,67,67,67,67,67,67,67,67,67,67,68,68,68,68,68,68,68,68,68,68,68,68,68,68,68,68,68,68,68,69,69,69,69,69,69,69,69,70,70,70,70,70,70,70,70,70,70,70,70,70,71,71,71,71,71,71,71,71,71,71,72,72,72,72,72,72,72,72,72,72,72,72,72,72,72,72,72,72,73,73,73,73,73,73,73,73,73,73,73,73,73,73,74,74,74,74,74,74,74,74,74,74,74,74,74,74,75,75,75,75,75,75,75,75,75,76,76,76,76,76,76,76,76,76,76,76,76,77,77,77,77,77,77,77,77,77,77,77,77,78,78,78,78,78,78,78,79,79,79,79,79,79,79,79,79,80,80,80,80,80,81,81,81,81,81,82,82,82,82,82,82,82,83,83,83,83,83,83,84,84,84,84,84,85,85,85,85,85,86,86,86,86,87,87,87,88,88,89,89,90];
unsucc = [3,4,5,6,7,8,9,10,11,12,13,14,15,16,17,18,19,20,21,22,24,25,26,27,28,29,30,31,32,33,36,37,38,39,41,42,46,48,50,52,53,56,63,64,65,66,71,75,80,4,5,7,8,9,10,11,12,14,15,16,17,18,19,20,21,22,23,24,25,26,27,28,29,31,34,36,37,38,39,40,41,42,46,47,48,50,52,53,55,56,57,63,64,65,6,13,23,30,33,6,7,8,9,11,12,13,14,15,16,17,18,19,20,21,23,24,25,26,27,28,29,30,31,32,33,34,35,36,37,38,39,40,41,42,43,44,45,46,47,48,50,51,52,53,54,55,56,59,64,65,66,69,70,73,74,78,81,7,8,9,10,11,12,13,14,15,16,17,18,19,20,21,22,23,24,25,26,27,28,29,30,31,32,33,34,35,36,37,38,39,40,41,42,43,44,45,46,47,48,49,50,51,52,53,54,55,56,57,58,59,60,61,62,63,64,65,66,67,68,69,70,72,73,74,78,79,81,82,86,87,89,8,9,10,11,12,13,14,15,16,17,20,22,23,25,26,27,28,29,30,31,32,33,35,36,37,38,39,40,42,43,44,48,55,63,64,71,10,13,18,21,23,24,30,33,10,12,13,17,18,19,20,21,23,24,27,30,33,34,35,36,38,40,42,43,45,46,48,49,53,11,12,13,14,15,16,17,18,19,20,21,23,24,25,26,27,28,29,30,31,32,33,34,35,36,37,38,39,40,41,42,43,44,45,46,47,48,50,51,52,53,54,55,56,59,64,65,66,69,70,73,74,78,79,81,82,87,12,13,17,18,19,20,21,23,24,27,30,33,34,35,36,38,40,42,43,44,45,46,48,49,53,64,13,14,15,16,18,20,21,22,23,24,25,26,28,29,30,31,32,33,37,41,42,63,64,71,75,14,15,16,17,18,19,20,21,22,23,24,25,26,27,28,29,30,31,34,36,37,38,39,40,41,42,46,47,48,50,52,53,55,56,57,63,64,65,66,71,75,16,17,18,19,20,21,23,24,27,30,33,34,35,36,38,40,42,43,44,45,46,48,49,53,63,64,16,17,18,19,20,21,22,23,24,25,26,27,28,29,30,31,32,33,34,35,36,37,38,39,40,41,42,43,44,45,46,48,49,50,51,52,53,55,56,57,59,60,61,62,63,64,65,66,69,70,71,73,74,75,76,77,78,79,80,81,82,83,84,85,88,17,18,19,20,21,22,23,24,25,26,27,28,29,30,31,32,33,34,35,36,38,39,40,41,42,43,44,45,46,48,49,50,51,53,55,57,59,60,61,62,63,64,65,69,70,71,73,75,78,79,80,81,18,20,21,22,23,24,25,26,27,28,29,30,31,32,33,35,36,37,38,40,41,42,43,44,45,48,52,55,57,59,63,64,66,71,75,19,20,22,23,25,26,27,28,29,30,31,32,33,34,35,36,37,38,39,40,42,43,44,47,48,52,53,55,63,64,66,71,20,21,22,23,24,25,26,27,28,29,30,31,32,33,35,36,37,38,39,40,41,42,43,44,45,46,48,49,50,51,52,54,55,56,57,58,59,60,63,64,65,66,67,69,70,71,75,76,77,78,79,80,81,83,84,88,89,21,22,23,24,25,26,27,28,29,30,31,32,33,34,35,36,37,38,39,40,41,43,44,45,46,47,48,49,50,51,52,53,54,55,56,57,58,60,61,62,65,67,68,73,22,23,24,25,26,27,28,29,30,31,32,33,34,35,36,37,38,39,40,41,42,43,44,47,48,52,53,55,56,63,64,66,71,75,80,23,24,25,26,27,28,29,30,31,32,33,34,35,36,37,38,39,40,41,42,43,44,45,46,47,48,49,50,51,52,53,54,55,56,59,63,64,65,66,67,69,70,71,73,74,75,76,77,78,79,80,81,82,83,84,85,87,24,25,26,27,28,29,30,31,32,33,36,37,38,39,40,41,42,43,45,46,48,50,51,52,53,54,55,56,57,58,59,63,64,65,66,69,70,71,75,76,77,78,79,80,84,85,25,26,27,28,29,30,31,32,33,34,35,36,37,38,39,40,41,42,43,44,45,46,47,48,49,50,51,52,53,54,55,56,57,58,59,60,61,62,63,64,65,66,67,68,69,70,71,72,73,74,76,77,78,79,81,82,86,87,89,27,30,33,34,35,36,38,40,42,43,44,45,46,47,48,49,53,57,61,63,64,27,28,29,30,31,33,34,35,36,37,38,39,40,41,42,43,44,45,46,47,48,49,50,51,52,53,54,55,56,57,58,59,60,61,62,63,64,65,66,67,68,69,70,72,73,74,79,86,89,28,29,30,31,32,33,34,36,37,38,39,40,41,42,43,44,45,46,47,48,50,51,52,53,54,55,56,57,58,59,63,64,65,66,69,70,71,75,76,77,78,80,81,83,88,29,30,31,32,33,34,35,36,38,40,41,42,43,44,45,46,47,48,49,50,51,53,55,57,59,60,61,62,63,64,65,69,71,73,75,78,30,32,33,34,35,36,37,38,39,40,42,43,44,45,46,47,48,49,52,53,57,61,63,64,66,71,75,80,31,32,33,34,35,36,37,38,39,40,41,42,43,44,45,46,47,48,49,50,51,52,53,54,55,56,57,58,59,60,61,62,63,64,65,67,68,69,71,73,75,78,80,81,83,32,33,34,35,36,37,38,39,40,41,42,43,44,45,46,47,48,49,50,51,52,53,54,56,57,58,59,60,61,62,63,64,66,67,68,69,70,71,72,75,76,77,79,80,84,85,86,89,33,34,35,36,37,38,39,40,41,42,43,44,45,46,47,48,49,50,51,52,53,54,55,56,57,58,59,60,61,62,63,64,65,66,67,68,69,70,71,72,73,74,75,76,77,78,79,80,81,82,83,84,86,87,88,89,91,34,36,37,38,39,40,41,42,46,47,48,50,52,53,55,56,57,63,64,65,66,71,75,80,35,36,37,38,39,40,41,42,43,44,45,46,48,49,50,51,52,53,54,55,56,57,58,59,60,61,62,63,64,65,66,67,68,69,70,71,75,76,77,78,79,80,81,83,84,85,86,88,89,36,37,38,39,40,41,42,43,44,45,46,47,48,50,51,52,53,54,55,56,57,58,59,63,64,65,66,69,70,71,75,76,77,78,79,80,81,83,84,85,88,37,39,41,42,46,47,49,50,63,64,71,75,80,38,39,40,41,42,43,44,45,46,47,48,49,50,51,53,55,57,59,60,61,62,63,64,65,69,70,71,73,75,78,79,80,81,84,85,39,41,42,46,47,49,50,52,56,63,64,65,66,71,73,74,75,80,40,41,42,43,44,45,46,47,48,49,50,51,52,53,54,55,57,59,60,61,62,63,64,65,66,67,69,71,73,74,75,78,81,82,89,41,42,46,47,48,49,50,52,53,55,56,63,64,65,66,71,73,74,75,80,42,43,44,45,46,47,48,49,50,51,52,53,54,55,57,60,61,63,64,65,66,67,71,73,74,75,80,89,43,44,45,46,47,48,49,50,51,52,53,54,55,56,57,58,59,60,61,62,65,66,67,68,72,73,74,89,45,46,47,48,49,50,52,53,55,56,57,59,61,62,63,64,65,66,69,70,71,73,74,75,76,78,79,80,84,85,45,46,47,48,49,50,51,52,53,54,55,56,57,58,59,60,61,62,63,64,65,66,67,68,69,70,71,72,73,74,75,76,77,78,79,80,84,85,86,89,90,46,47,48,49,50,52,53,55,56,57,61,63,64,65,66,71,73,74,75,80,47,48,52,53,55,56,57,59,63,64,66,71,75,80,48,49,50,51,52,53,54,55,56,57,58,59,60,61,62,63,64,65,66,67,68,69,70,71,73,74,75,76,77,78,79,80,81,82,83,84,85,86,87,88,89,91,49,50,51,52,54,56,57,58,59,60,63,64,65,66,69,70,71,73,74,75,76,77,79,80,84,85,50,51,52,53,54,55,56,57,58,59,63,64,65,66,69,70,71,73,74,75,76,77,78,79,80,81,82,83,84,85,87,88,52,53,55,56,57,59,61,62,63,64,65,66,71,73,75,80,52,53,55,56,57,59,61,62,63,64,65,66,69,70,71,73,74,75,76,78,79,80,81,82,83,84,85,87,53,54,55,57,59,60,61,62,63,64,65,67,69,70,71,73,75,78,79,80,81,83,84,85,54,55,56,57,58,59,60,63,64,65,66,67,69,70,71,73,74,75,76,77,78,79,80,81,82,83,84,85,87,88,89,55,56,57,59,60,61,62,63,64,65,66,69,70,71,73,74,75,76,77,78,79,80,81,82,83,84,85,87,88,56,57,58,59,60,61,62,63,64,65,66,67,68,69,70,71,72,73,74,75,76,77,79,80,84,85,86,89,90,57,59,60,61,62,63,64,65,66,67,69,70,71,73,74,75,76,78,79,80,81,82,83,84,85,89,59,60,63,64,65,66,67,69,70,71,73,74,75,76,77,78,79,80,81,82,83,84,85,87,88,89,59,60,61,62,63,64,65,66,67,69,70,71,73,74,75,76,77,78,79,80,81,82,83,84,85,87,88,89,60,61,62,63,64,65,66,67,68,71,72,73,74,75,80,86,89,61,62,63,64,65,66,67,69,70,71,73,74,75,76,77,78,79,80,81,82,83,84,85,87,88,63,64,65,66,67,69,70,71,73,74,75,76,77,78,79,80,81,82,83,84,85,87,88,89,63,64,65,66,67,69,70,71,73,74,75,76,77,78,79,80,81,82,83,84,85,87,88,89,64,65,66,67,68,69,70,72,73,74,78,79,81,82,86,87,89,65,66,67,68,69,70,71,72,73,74,76,77,78,79,81,82,87,89,66,67,68,69,70,71,72,75,76,77,78,79,80,81,83,84,85,86,88,89,90,67,68,69,70,71,73,75,76,77,78,79,80,81,83,84,85,86,88,68,69,70,71,72,73,74,75,76,77,78,79,80,81,82,83,84,85,86,87,88,90,91,69,70,71,73,74,75,76,77,78,79,80,81,82,83,84,85,87,88,89,71,72,73,74,75,80,86,89,71,72,73,74,75,78,80,81,82,83,86,87,89,72,73,74,78,79,81,82,86,87,89,73,74,75,76,77,78,79,80,81,82,83,84,85,86,87,88,89,91,75,76,77,78,79,80,81,83,84,85,86,88,89,90,75,76,77,78,79,80,81,83,84,85,86,88,89,90,76,77,78,79,81,82,86,87,89,78,79,80,81,82,83,84,85,86,87,89,90,78,79,80,81,82,83,84,85,86,87,89,90,79,80,84,85,86,89,90,80,81,82,83,86,87,88,89,91,81,82,86,87,89,84,85,86,89,90,83,84,85,86,88,89,90,84,85,86,87,89,90,86,87,88,89,91,86,87,88,89,91,87,88,89,90,88,89,90,89,90,90,91,91];

USEFUL_RES = [{},
	{1,2,3,4,5,6,8,9,10,11,12,13,14,15},
	{1,2,5,9,10,13,14},
	{1,2,3,4,5,6,9,10,12,13,14,15},
	{1,2,3,4,5,6,7,8,9,10,11,12,13,14,15},
	{1,2,3,4,5,6,8,9,10,11,12,13,14,15},
	{1,2,3,4,5,6,7,8,9,10,11,12,13,14,15},
	{1,2,3,4,5,9,10,13,14,15},
	{1,2,3,4,5,6,9,10,12,13,14,15},
	{1,2,3,4,5,6,9,10,12,13,14,15},
	{1,2,3,4,6,9,12,14,15},
	{1,2,5,8,9,10,11,13,14},
	{1,2,3,4,5,8,9,10,11,13,14,15},
	{1,2,3,4,6,12,15},
	{1,2,5,9,10,13,14},
	{1,2,3,4,5,6,7,8,9,10,11,12,13,14,15},
	{1,2,3,4,6,9,12,14,15},
	{1,2,3,4,6,7,8,11,12,15},
	{1,2,5,9,10,13,14},
	{1,2,3,4,5,7,8,9,10,11,13,14,15},
	{1,2,3,4,5,9,10,13,14,15},
	{1,2,3,4,7,8,11,15},
	{1,2,3,4,6,7,8,11,12,15},
	{1,2,3,4,5,6,7,8,9,10,11,12,13,14,15},
	{1,2,3,4,5,6,7,8,9,10,11,12,13,14,15},
	{1,2,5,9,10,13,14},
	{1,2,3,4,5,6,9,10,12,13,14,15},
	{1,2,5,9,10,13,14},
	{1,2,7,8,9,11,14},
	{1,2,3,4,5,6,7,8,9,10,11,12,13,14,15},
	{1,2,3,4,5,9,10,13,14,15},
	{1,2,3,4,6,12,15},
	{1,2,3,4,6,7,8,11,12,15},
	{1,2,3,4,5,6,9,10,12,13,14,15},
	{1,2,3,4,5,6,8,9,10,11,12,13,14,15},
	{1,2,3,4,5,6,9,10,12,13,14,15},
	{1,2,3,4,5,6,8,9,10,11,12,13,14,15},
	{1,2,5,7,8,9,10,11,13,14},
	{1,2,3,4,5,6,7,8,9,10,11,12,13,14,15},
	{1,2,3,4,5,6,9,10,12,13,14,15},
	{1,2,5,9,10,13,14},
	{1,2,5,9,10,13,14},
	{1,2,3,4,5,6,9,10,12,13,14,15},
	{1,2,5,9,10,13,14},
	{1,2,5,7,8,9,10,11,13,14},
	{1,2,9,14},
	{1,2,3,4,5,6,7,8,9,10,11,12,13,14,15},
	{7,8,11},
	{1,2,3,4,5,8,9,10,11,13,14,15},
	{1,2,3,4,6,9,12,14,15},
	{1,2,3,4,5,6,7,8,9,10,11,12,13,14,15},
	{1,2,3,4,5,6,9,10,12,13,14,15},
	{1,2,3,4,5,7,8,9,10,11,13,14,15},
	{1,2,9,14},
	{1,2,3,4,6,7,8,9,11,12,14,15},
	{1,2,5,8,9,10,11,13,14},
	{1,2,3,4,5,6,9,10,12,13,14,15},
	{1,2,3,4,15},
	{1,2,5,9,10,13,14},
	{1,2,3,4,5,6,9,10,12,13,14,15},
	{1,2,3,4,15},
	{1,2,3,4,6,8,11,12,15},
	{1,2,3,4,5,6,9,10,12,13,14,15},
	{1,2,3,4,5,6,8,9,10,11,12,13,14,15},
	{1,2,5,8,9,10,11,13,14},
	{7,8,11},
	{1,2,3,4,6,9,12,14,15},
	{1,2,3,4,5,6,9,10,12,13,14,15},
	{1,2,3,4,7,8,11,15},
	{7,8,11},
	{1,2,5,9,10,13,14},
	{1,2,3,4,6,7,8,11,12,15},
	{1,2,3,4,5,6,7,8,11,12,15},
	{1,2,5,9,10,13,14},
	{1,2,3,4,5,6,9,10,12,13,14,15},
	{1,2,3,4,5,6,8,9,10,11,12,13,14,15},
	{1,2,3,4,5,6,9,10,12,13,14,15},
	{1,2,5,9,10,13,14},
	{1,2,3,4,5,6,9,10,12,13,14,15},
	{1,2,3,4,5,7,8,9,10,11,13,14,15},
	{1,2,5,7,8,9,10,11,13,14},
	{1,2,5,9,10,13,14},
	{1,2,3,4,5,6,7,8,9,10,11,12,13,14,15},
	{1,2,3,4,15},
	{1,2,5,8,9,10,11,13,14},
	{1,2,3,4,5,6,9,10,12,13,14,15},
	{1,2,3,4,5,6,9,10,12,13,14,15},
	{1,2,3,4,5,6,7,8,9,10,11,12,13,14,15},
	{1,2,3,4,5,6,7,8,9,10,11,12,13,14,15},
	{1,2,3,4,5,9,10,13,14,15},
	{7,8,11},
	{}];

POTENTIAL_ACT = [{2,3,4,5,6,7,8,9,10,11,12,13,14,15,16,17,18,19,20,21,22,23,24,25,26,27,28,29,30,31,32,33,34,35,36,37,38,39,40,41,42,43,44,45,46,47,49,50,51,52,53,54,55,56,57,58,59,60,61,62,63,64,65,67,68,69,71,72,73,74,75,76,77,78,79,80,81,82,83,84,85,86,87,88,89,90},
	{2,3,4,5,6,7,8,9,10,11,12,13,14,15,16,17,18,19,20,21,22,23,24,25,26,27,28,29,30,31,32,33,34,35,36,37,38,39,40,41,42,43,44,45,46,47,49,50,51,52,53,54,55,56,57,58,59,60,61,62,63,64,65,67,68,69,71,72,73,74,75,76,77,78,79,80,81,82,83,84,85,86,87,88,89,90},
	{2,4,5,6,7,8,9,10,11,13,14,16,17,18,20,21,22,23,24,25,27,30,31,32,33,34,35,36,37,39,40,43,47,49,50,51,52,53,55,57,58,60,61,62,63,64,67,68,69,72,73,75,76,77,79,80,83,84,86,87,88,89,90},
	{2,4,5,6,7,8,9,10,11,13,14,16,17,18,20,21,22,23,24,25,27,30,31,32,33,34,35,36,37,39,40,43,47,49,50,51,52,53,55,57,58,60,61,62,63,64,67,68,69,72,73,75,76,77,79,80,83,84,86,87,88,89,90},
	{2,3,4,5,6,7,8,9,10,12,13,15,16,19,20,21,24,25,26,27,28,30,31,34,35,36,37,38,39,40,41,42,43,44,45,47,49,51,52,53,56,57,59,60,63,64,65,68,71,73,74,75,76,77,78,79,80,81,82,83,85,86,87,88,89,90},
	{2,4,5,6,7,9,10,11,14,16,17,18,23,24,25,27,30,32,33,34,35,36,37,39,40,43,47,50,51,52,55,57,60,62,63,64,67,68,72,73,75,76,77,79,83,86,87,88,89},
	{5,7,16,18,20,22,23,24,25,29,30,33,38,39,45,47,48,51,53,55,66,69,70,72,73,80,81,83,88,89,91},
	{2,5,6,7,12,13,16,18,20,22,23,24,25,29,30,33,35,37,38,39,45,47,48,49,51,53,55,56,62,64,65,66,69,70,72,73,76,80,81,83,85,88,89,91},
	{2,3,4,5,6,7,8,9,10,11,12,13,15,16,17,19,20,21,24,25,26,27,28,29,30,31,34,35,36,37,38,39,40,41,42,43,44,45,46,47,49,50,51,52,53,54,55,56,57,59,60,63,64,65,67,68,71,74,75,76,77,78,79,80,81,82,83,85,86,87,88,89,90},
	{2,3,4,5,6,7,8,9,10,12,13,15,16,19,20,21,24,25,26,27,28,30,31,34,35,36,37,38,39,40,41,42,43,44,45,47,49,51,52,53,56,57,59,60,63,64,65,68,71,74,75,76,77,78,79,80,81,82,83,85,86,87,88,89,90},
	{2,5,6,7,12,13,16,18,20,22,23,24,25,29,30,33,35,37,38,39,45,47,48,49,51,53,55,56,62,64,65,66,69,70,72,73,76,80,81,83,85,88,89,91},
	{2,4,5,6,7,9,10,11,14,16,17,18,23,24,25,27,30,32,33,34,35,36,37,39,40,43,47,50,51,52,55,57,60,62,63,64,67,68,72,73,75,76,77,79,83,86,87,88,89},
	{2,3,4,5,6,7,8,9,10,12,13,15,16,19,20,21,24,25,26,27,28,30,31,34,35,36,37,38,39,40,41,42,43,44,45,47,49,51,52,53,56,57,59,60,63,64,65,68,71,74,75,76,77,78,79,80,81,82,83,85,86,87,88,89,90},
	{2,3,4,5,6,7,8,9,10,11,12,13,15,16,17,19,20,21,24,25,26,27,28,29,30,31,34,35,36,37,38,39,40,41,42,43,44,45,46,47,49,50,51,52,53,54,55,56,57,59,60,63,64,65,67,68,71,74,75,76,77,78,79,80,81,82,83,85,86,87,88,89,90},
	{2,4,5,6,7,8,9,10,11,13,14,16,17,18,20,21,22,23,24,25,27,30,31,32,33,34,35,36,37,39,40,43,47,49,50,51,52,53,55,57,58,60,61,62,63,64,67,68,69,72,73,75,76,77,79,80,83,84,86,87,88,89,90}];
